448,173
414,270
435,745
366,635
1023,295
1051,286
899,248
641,326
672,347
575,300
531,406
672,378
729,441
766,379
975,257
1062,25
935,152
799,424
734,379
560,318
510,351
411,406
385,360
471,406
1131,406
1184,485
963,794
999,724
1071,406
765,939
764,662
718,169
653,229
792,64
681,166
387,257
708,491
871,780
